c A SAT instance generated from a 3-CNF formula that had 19 clauses and 8 variables
p cnf 8 19
-6 4 -1 0
-8 4 -7 0
-2 7 -4 0
4 -5 7 0
-1 3 2 0
2 -7 3 0
7 -4 -6 0
4 -8 -7 0
2 6 -3 0
-7 -6 8 0
-7 2 -3 0
-8 4 -7 0
-3 8 -6 0
-5 -7 -2 0
-1 5 8 0
3 7 -6 0
2 -4 -5 0
2 1 6 0
-2 -5 8 0
